c ---- [ banner ] ------------------------------------------------------------
c
c Kissat SAT Solver
c 
c Copyright (c) 2021-2023 Armin Biere University of Freiburg
c Copyright (c) 2019-2021 Armin Biere Johannes Kepler University Linz
c 
c Version 3.1.1 unknown
c gcc (Ubuntu 9.4.0-1ubuntu1~20.04.2) 9.4.0 -W -Wall -O3 -DNDEBUG
c Mon Feb 26 18:18:52 CET 2024 Linux OptiPlex-7080 5.15.0-88-generic x86_64
c
c ---- [ parsing ] -----------------------------------------------------------
c
c opened and reading DIMACS file:
c
c   tseitin-d6-7.cnf
c
c parsed 'p cnf 21 224' header
c closing input after reading 4853 bytes (5 KB)
c finished parsing after 0.00 seconds
c
c ---- [ solving ] -----------------------------------------------------------
c
c  seconds switched conflicts irredundant variables
c         MB reductions redundant   trail  remaining
c          level restarts   binary     glue
c
c *  0.00  3 0 0 0  0   0   0   0 224 0% 0 21 95%
c {  0.00  4 0 0 0  0   0   0   0 224 0% 0 21 95%
c v  0.00  4 11 0 0  0 562 294   0 224 100% 6 21 95%
c -  0.01  4 11 0 1 158 1001 303   0 224 94% 8 21 95%
c }  0.01  4 11 1 1 158 1001 303   0 224 94% 8 21 95%
c [  0.01  4 0 1 1 158 1001 303   0 224 0% 0 21 95%
c B  0.01  4 0 1 1 158 1001 303   0 224 0% 0 21 95%
c v  0.01  4 12 1 1 158 1123 367   0 224 100% 7 21 95%
c ]  0.02  4 10 2 1 158 1826 838   0 224 89% 8 21 95%
c {  0.02  4 11 2 1 158 1826 838   0 224 94% 8 21 95%
c -  0.02  4 11 2 2 212 2001 449   0 224 92% 8 21 95%
c u  0.02  4 11 2 2 215 2291 684   0 224 91% 8 21 95%
c v  0.02  4 11 2 2 215 2291 684   0 224 91% 8 21 95%
c ^  0.02  4 10 2 2 215 2806 1104   0 224 90% 8 21 95%
c }  0.02  4 10 3 2 215 2828 1120   0 224 90% 8 21 95%
c [  0.02  4 10 3 2 215 2828 1120   0 224 89% 8 21 95%
c W  0.03  4 10 3 2 215 2828 1120   0 224 89% 8 21 95%
c -  0.03  4 10 3 3 215 3416 681   0 224 86% 8 21 95%
c ]  0.03  4 10 4 3 216 3893 1156   0 224 86% 8 21 95%
c {  0.03  4 10 4 3 216 3893 1156   0 224 90% 8 21 95%
c
c  seconds  switched conflicts    irredundant variables
c         MB reductions   redundant      trail  remaining
c          level restarts       binary      glue
c
c u  0.03  4 10 4 3 288 4106 1335   0 224 91% 8 21 95%
c v  0.03  4 10 4 3 288 4106 1335   0 224 91% 8 21 95%
c -  0.04  4 10 4 4 327 5148 992   0 224 90% 8 21 95%
c ^  0.04  4 10 4 4 327 5614 1260   0 224 91% 8 21 95%
c }  0.04  4 10 5 4 457 6246 1768   0 224 90% 8 21 95%
c [  0.04  4 10 5 4 457 6246 1768   0 224 86% 8 21 95%
c I  0.04  4 10 5 4 457 6246 1768   0 224 86% 8 21 95%
c v  0.05  4 10 5 4 457 6605 2014   0 224 86% 8 21 95%
c -  0.05  4 10 5 5 457 7149 1036   0 224 86% 8 21 95%
c ]  0.06  4 10 6 5 459 8456 2339   0 224 86% 8 21 95%
c {  0.06  4 10 6 5 459 8456 2339   0 224 90% 8 21 95%
c -  0.06  5 10 6 6 508 9386 1375   0 224 90% 8 21 95%
c v  0.06  5 10 6 6 508 9821 1708   0 224 90% 8 21 95%
c ^  0.07  5 10 6 6 518 11698 3244   0 224 89% 8 21 95%
c -  0.07  5 10 6 7 534 11836 2051   0 224 90% 8 21 95%
c }  0.08  5 9 7 7 534 12525 2704   0 224 90% 8 21 95%
c [  0.08  5 10 7 7 534 12525 2704   0 224 86% 8 21 95%
c B  0.08  5 10 7 7 534 12525 2704   0 224 86% 8 21 95%
c u  0.08  5 9 7 7 534 13780 3718   0 224 86% 8 21 95%
c v  0.09  5 9 7 7 534 13780 3718   0 224 86% 8 21 95%
c
c  seconds switched  conflicts    irredundant variables
c         MB reductions   redundant      trail  remaining
c          level restarts       binary      glue
c
c -  0.09  5 9 7 8 535 14482 2620   0 224 85% 8 21 95%
c ]  0.10  5 9 8 8 536 16063 4197   2 224 85% 7 21 95%
c {  0.10  5 9 8 8 536 16063 4197   2 224 90% 8 21 95%
c i  0.10  5 9 8 8 536 16950 5070  12 224 90% 7 20 91%
c -  0.10  5 9 8 9 536 17311 1456   0 224 90% 7 20 91%
c u  0.11  5 9 8 9 536 18506 2401  12 192 91% 7 20 91%
c v  0.11  5 9 8 9 536 18506 1915 498 192 91% 7 20 91%
c w  0.11  5 9 8 9 536 18506 1915 506 184 91% 7 20 91%
c t  0.11  5 9 8 9 536 18506 1915   1 184 91% 7 20 91%
c i  0.12  5 9 8 9 601 20177 3351   8 184 90% 7 19 86%
c -  0.12  5 9 8 10 601 20313 894 387 184 90% 7 19 86%
c 2  0.12  5 8 8 10 601 21498 1821   4 184 91% 7 18 82%
c s  0.12  5 8 8 10 601 21498 1821   4 116 91% 7 18 82%
c ^  0.12  5 8 8 10 601 21498 1821   2 116 91% 7 18 82%
c i  0.12  5 8 8 10 601 21897 1059   9 116 91% 7 17 77%
c i  0.12  5 8 8 10 601 22077 1187  15 116 91% 7 16 73%
c i  0.12  5 8 8 10 601 22137 1217  19 116 91% 7 15 68%
c i  0.12  5 8 8 10 601 22164 1234  24 116 91% 7 14 64%
c i  0.13  5 8 8 10 601 22186 1246  27 116 91% 6 13 59%
c i  0.13  5 8 8 10 601 22200 1252  32 116 91% 6 10 45%
c
c  seconds switched   conflicts    irredundant variables
c         MB reductions    redundant      trail  remaining
c          level restarts        binary      glue
c
c }  0.13  5 8 8 10 601 22202 1252  32 116 91% 6  6 27%
c 0  0.13  5 8 8 10 601 22202 1252  32 116 91% 6  6 27%
c
c ---- [ result ] ------------------------------------------------------------
c
s UNSATISFIABLE
c
c ---- [ profiling ] ---------------------------------------------------------
c
c           0.06   50.04 %  simplify
c           0.06   49.51 %  search
c           0.06   48.15 %  probe
c           0.04   32.85 %  focused
c           0.04   28.92 %  sweep
c           0.02   17.71 %  vivify
c           0.02   16.61 %  stable
c           0.00    1.49 %  reduce
c           0.00    1.38 %  eliminate
c           0.00    1.24 %  substitute
c           0.00    0.52 %  walking
c           0.00    0.39 %  parse
c           0.00    0.22 %  transitive
c           0.00    0.19 %  subsume
c           0.00    0.03 %  backbone
c =============================================
c           0.13  100.00 %  total
c
c ---- [ statistics ] --------------------------------------------------------
c
c conflicts:                            22202           176121.08 per second
c decisions:                            30561                1.38 per conflict
c jumped_reasons:                           1                0 %  propagations
c propagations:                        136890          1085903    per second
c queue_decisions:                      20507               67 %  decision
c random_decisions:                       360                1 %  decision
c random_sequences:                        14             1586    interval
c reductions:                              10             2220    interval
c rephased:                                 4             5550    interval
c restarts:                               601               36.94 interval
c score_decisions:                       9694               32 %  decision
c strengthened:                            22                0 %  checks
c subsumed:                                 4                0 %  checks
c switched:                                 8             2775    interval
c vivified:                              2898               23 %  checks
c vivify_checks:                        12720             1590    per vivify
c vivify_units:                             0                0 %  variables
c walk_improved:                            1              100 %  walks
c walks:                                    1            22202    interval
c
c ---- [ resources ] ---------------------------------------------------------
c
c maximum-resident-set-size:          5189632 bytes          5 MB
c process-time:                                              0.13 seconds
c
c ---- [ shutting down ] -----------------------------------------------------
c
c exit 20
